 $CONTRL  RUNTYP=globop  coord=fragonly units=angs $end
 $SYSTEM TIMLIM=99999999 MWORDS=50 $END
 $statpt opttol=1.0e-5 nstep=100  $end
 $globop  tempi=12000 tempf=1800 nprt=1 mcmin=.t. nstmin=20 nfrmov=1 $end

 $efrag
 iscrelec=1 iscrdisp=1 iscrpol=1
 FRAGNAME=CH2O
 C1            -1.0430146209   1.4559100372   0.1796749063
 O2            -0.2842115370   1.1069537551  -0.6692942081
 H3            -1.6242594900   2.3715627606   0.0701821016
 FRAGNAME=water
O1        3.41851139    -0.06287411     0.00032335
H2        3.76997828     0.42026755     0.75106204
H3        3.77001834     0.41001055    -0.75689960
 FRAGNAME=water
O1        6.41851139    -0.06287411     0.00032335
H2        6.76997828     0.42026755     0.75106204
H3        6.77001834     0.41001055    -0.75689960
 FRAGNAME=water
O1        3.41851139    3.0     0.00032335
H2        3.76997828     3.42026755     0.75106204
H3        3.77001834     3.41001055    -0.75689960
 FRAGNAME=water
O1        6.41851139    6.0     0.00032335
H2        6.76997828     6.42026755     0.75106204
H3        6.77001834     6.41001055    -0.75689960
 $end



 $CH2O
EFP DATA FOR FRAGNAME SCFTYP=RHF     ... GENERATED WITH BASIS SET=XXX
 COORDINATES (BOHR)
C1     -1.1274320583  -0.0009136724   0.0001120390  12.0000000  6.0
O2      1.1230888982  -0.0006471117  -0.0000271324  15.9949100  8.0
H3     -2.1869977431   1.7656231498  -0.0004487199   1.0078250  1.0
H4     -2.2130926983  -1.7444740789  -0.0004546989   1.0078250  1.0
BO21      -0.0021715801  -0.0007803921   0.0000424533   0.0000000  0.0
BO31      -1.6572149007   0.8823547387  -0.0001683405   0.0000000  0.0
BO41      -1.6702623783  -0.8726938756  -0.0001713300   0.0000000  0.0
 STOP
 MONOPOLES 
C1     -4.4994092898   6.00000
O2     -8.0062160763   8.00000
H3     -0.6792356364   1.00000
H4     -0.6774657282   1.00000
BO21      -1.0425729876   0.00000
BO31      -0.5205071994   0.00000
BO41      -0.5745930822   0.00000
 STOP
 DIPOLES 
C1       0.4496469018   -0.0038729890    0.0000109164
O2      -0.3166876770   -0.0019311888    0.0000432147
H3      -0.0255064898    0.0514576250   -0.0000229546
H4      -0.0268248387   -0.0503437965   -0.0000231549
BO21       -0.2158240904    0.0065940426   -0.0000764784
BO31        0.1483752543   -0.2650312812   -0.0000091104
BO41        0.1758263455    0.2158053500    0.0000064190
 STOP
 QUADRUPOLES 
C1      -2.2451784669   -2.6638534103   -2.1216051814   -0.0007841865 >
           -0.0000774151   -0.0000013712
O2      -3.6889124282   -4.5242181288   -3.7579662274    0.0017048871 >
           -0.0000581202   -0.0000019034
H3      -0.5507851407   -0.5544643121   -0.5498939037    0.0033412620 >
           -0.0000009697    0.0000024041
H4      -0.5504007823   -0.5537326262   -0.5493237155   -0.0034349886 >
           -0.0000010443   -0.0000024051
BO21       -0.6049143139   -0.3019870047   -1.1446091714   -0.0008575751 >
            0.0000060225    0.0000013779
BO31       -0.1578057825   -0.1672176319   -0.2000334007    0.1380473822 >
            0.0000044673    0.0000231506
BO41       -0.3275313073   -0.3589974446   -0.3518105618   -0.1112653189 >
           -0.0000041899   -0.0000097519
 STOP
 OCTUPOLES  
C1       1.2337817234   -0.0110360715   -0.0000299365    0.0004782071 >
            0.0000061983    0.7611428946    0.0000692550    0.3555838700 >
           -0.0015920035    0.0000012094
O2      -0.4947925824   -0.0059634709    0.0000460885   -0.0012759609 >
            0.0000350539   -0.1233299185    0.0000073294   -0.0868514873 >
           -0.0020072965    0.0000001035
H3      -0.0320075505    0.0769120138   -0.0000357512    0.0256827674 >
           -0.0000119866   -0.0115627913   -0.0000125190   -0.0106743708 >
            0.0253239932    0.0000002925
H4      -0.0339396282   -0.0743107923   -0.0000358876   -0.0248728574 >
           -0.0000120485   -0.0121984389   -0.0000125578   -0.0113080683 >
           -0.0244749179   -0.0000003085
BO21       -0.9767086862    0.0312895399   -0.0003034698    0.0096207926 >
           -0.0000999873   -0.2776096574   -0.0001443097   -0.2395029551 >
            0.0088496525    0.0000001800
BO31        0.1871125234   -0.4294741606   -0.0002357992   -0.1059390339 >
           -0.0000843068    0.0590234522   -0.0000861159    0.0554116129 >
           -0.1232050150   -0.0000146843
BO41        0.4282597472   -0.0413006033   -0.0001095727   -0.0520384533 >
           -0.0000376625    0.1586257530   -0.0000322872    0.1328508144 >
           -0.0214942620    0.0000074072
 STOP
 POLARIZABLE POINTS
CT1   0.2758029573  -0.0016514634  -0.4469778721
    4.9810421717    1.2053519367    2.7002662806    0.0000062848 >
    0.4787211619    0.0026332756   -0.0066369104    0.4897327315 >
    0.0051701565
CT2  -1.8966720134  -1.1860107446  -0.0001800918
    2.9847653161    4.5249518312    2.1305734272    1.2415714937 >
    0.0005728610    0.0007111929    0.9910147085    0.0003275644 >
    0.0003158536
CT3  -1.8830881716   1.1979962440  -0.0001749745
    2.9706642586    4.5917089307    2.1485297723   -1.2508652334 >
    0.0005555145   -0.0007154387   -0.9821365616    0.0003180109 >
   -0.0003184326
CT4   1.3450668670   0.5500428670  -0.0000295060
    2.3322642022    1.9908576430    0.9417885686    1.2031533565 >
    0.0000640171   -0.0001587434    0.8162485716    0.0001860352 >
    0.0000253849
CT5   0.2758095429  -0.0016542009   0.4471118003
    4.9815574159    1.2056570096    2.7008294601    0.0000097518 >
   -0.4799435339   -0.0026392688   -0.0066344601   -0.4908298392 >
   -0.0051784323
CT6   1.3479773325  -0.5509104771  -0.0000327330
    2.3307854392    1.9954117833    0.9371152892   -1.2131655179 >
    0.0000594364    0.0001640532   -0.8292130962    0.0001805408 >
   -0.0000209723
 STOP
 DYNAMIC POLARIZABLE POINTS
CT  1   0.2758029573  -0.0016514634  -0.4469778721 -- FOR W= 0.002792I A.U.
    4.9807043477    1.2053359461    2.7000890407    0.0003198092 >
    0.4787641692    0.0026134295   -0.0069696465    0.4893117173 >
    0.0052347404
CT  2  -1.8966720134  -1.1860107446  -0.0001800918
    2.9846325142    4.5247579693    2.1306162774    1.2417092234 >
    0.0005575003    0.0007157729    0.9908491846    0.0003204852 >
    0.0003062599
CT  3  -1.8830881716   1.1979962440  -0.0001749745
    2.9707356466    4.5916184285    2.1488067551   -1.2506417820 >
    0.0005403032   -0.0007203447   -0.9818781724    0.0003110412 >
   -0.0003085240
CT  4   1.3450668670   0.5500428670  -0.0000295060
    2.3325571798    1.9909194397    0.9419158850    1.2036492465 >
    0.0000472114   -0.0001650051    0.8162881946    0.0001921057 >
    0.0000282433
CT  5   0.2758095429  -0.0016542009   0.4471118003
    4.9812246526    1.2056463428    2.7006547536    0.0003232216 >
   -0.4800321207   -0.0026196771   -0.0069673299   -0.4904008891 >
   -0.0052428731
CT  6   1.3479773325  -0.5509104771  -0.0000327330
    2.3310024978    1.9954849313    0.9369368656   -1.2130716712 >
    0.0000423647    0.0001699775   -0.8290248533    0.0001865776 >
   -0.0000236919
CT  1   0.2758029573  -0.0016514634  -0.4469778721 -- FOR W= 0.015107I A.U.
    4.9739664442    1.2049545407    2.6982811174    0.0003200275 >
    0.4783351451    0.0026131211   -0.0069526795    0.4889447436 >
    0.0052259583
CT  2  -1.8966720134  -1.1860107446  -0.0001800918
    2.9832090998    4.5209043973    2.1299261744    1.2401614063 >
    0.0005567560    0.0007128256    0.9894901929    0.0003201069 >
    0.0003061218
CT  3  -1.8830881716   1.1979962440  -0.0001749745
    2.9693203108    4.5876780986    2.1480297414   -1.2490551050 >
    0.0005396237   -0.0007173720   -0.9805233358    0.0003106666 >
   -0.0003083737
CT  4   1.3450668670   0.5500428670  -0.0000295060
    2.3315301099    1.9897624772    0.9417446449    1.2024519080 >
    0.0000470449   -0.0001628765    0.8153613088    0.0001916518 >
    0.0000281702
CT  5   0.2758095429  -0.0016542009   0.4471118003
    4.9744856858    1.2052643757    2.6988464366    0.0003234327 >
   -0.4796003403   -0.0026193704   -0.0069503466   -0.4900312999 >
   -0.0052340833
CT  6   1.3479773325  -0.5509104771  -0.0000327330
    2.3299680279    1.9943086899    0.9368333378   -1.2118562999 >
    0.0000421619    0.0001678482   -0.8280704407    0.0001861277 >
   -0.0000236159
CT  1   0.2758029573  -0.0016514634  -0.4469778721 -- FOR W= 0.039002I A.U.
    4.9348913654    1.2027235957    2.6877436407    0.0003212758 >
    0.4758367646    0.0026112810   -0.0068545303    0.4868035539 >
    0.0051758181
CT  2  -1.8966720134  -1.1860107446  -0.0001800918
    2.9748915157    4.4984953821    2.1258767438    1.2311695532 >
    0.0005524347    0.0006963086    0.9816084965    0.0003179073 >
    0.0003053102
CT  3  -1.8830881716   1.1979962440  -0.0001749745
    2.9610500381    4.5647652432    2.1434950731   -1.2398384897 >
    0.0005356600   -0.0007007092   -0.9726660031    0.0003084894 >
   -0.0003074929
CT  4   1.3450668670   0.5500428670  -0.0000295060
    2.3255194196    1.9830274351    0.9407507931    1.1954863587 >
    0.0000460788   -0.0001510863    0.8099810863    0.0001890195 >
    0.0000277445
CT  5   0.2758095429  -0.0016542009   0.4471118003
    4.9354044314    1.2030302735    2.6883066644    0.0003246414 >
   -0.4770860046   -0.0026175394   -0.0068520960   -0.4878749675 >
   -0.0051838983
CT  6   1.3479773325  -0.5509104771  -0.0000327330
    2.3239149415    1.9874621459    0.9362140143   -1.2047864754 >
    0.0000410031    0.0001560497   -0.8225307919    0.0001835197 >
   -0.0000231758
CT  1   0.2758029573  -0.0016514634  -0.4469778721 -- FOR W= 0.077996I A.U.
    4.8028435839    1.1949361379    2.6514549544    0.0003252754 >
    0.4672608944    0.0026043885   -0.0065256041    0.4794004072 >
    0.0050146978
CT  2  -1.8966720134  -1.1860107446  -0.0001800918
    2.9459702956    4.4219723086    2.1115969716    1.2005824550 >
    0.0005377010    0.0006468133    0.9549654101    0.0003104052 >
    0.0003024088
CT  3  -1.8830881716   1.1979962440  -0.0001749745
    2.9322945559    4.4865302228    2.1277778747   -1.2084996382 >
    0.0005220039   -0.0006507710   -0.9461088005    0.0003010732 >
   -0.0003043801
CT  4   1.3450668670   0.5500428670  -0.0000295060
    2.3045035798    1.9599384541    0.9373610603    1.1716659609 >
    0.0000428718   -0.0001173873    0.7917357362    0.0001801539 >
    0.0000262851
CT  5   0.2758095429  -0.0016542009   0.4471118003
    4.8033355343    1.1952332569    2.6520100662    0.0003285185 >
   -0.4684565854   -0.0026106669   -0.0065228910   -0.4804211093 >
   -0.0050226270
CT  6   1.3479773325  -0.5509104771  -0.0000327330
    2.3027624745    1.9640002090    0.9338934771   -1.1806175024 >
    0.0000372700    0.0001223124   -0.8037495897    0.0001747464 >
   -0.0000216943
CT  1   0.2758029573  -0.0016514634  -0.4469778721 -- FOR W= 0.138651I A.U.
    4.4666671217    1.1732120929    2.5540759556    0.0003338439 >
    0.4444511413    0.0025813326   -0.0057086033    0.4593216657 >
    0.0046407566
CT  2  -1.8966720134  -1.1860107446  -0.0001800918
    2.8662304263    4.2210864397    2.0709914911    1.1212415143 >
    0.0004991461    0.0005504443    0.8870422209    0.0002908145 >
    0.0002938705
CT  3  -1.8830881716   1.1979962440  -0.0001749745
    2.8530189973    4.2812160774    2.0844629000   -1.1273041375 >
    0.0004855531   -0.0005535083   -0.8784314358    0.0002817547 >
   -0.0002954078
CT  4   1.3450668670   0.5500428670  -0.0000295060
    2.2457378039    1.8987027613    0.9281846526    1.1089376741 >
    0.0000352459   -0.0000605826    0.7448129260    0.0001578380 >
    0.0000224609
CT  5   0.2758095429  -0.0016542009   0.4471118003
    4.4671037263    1.1734898462    2.5546097730    0.0003368307 >
   -0.4455132457   -0.0025876006   -0.0057054869   -0.4602166672 >
   -0.0046483009
CT  6   1.3479773325  -0.5509104771  -0.0000327330
    2.2436977403    1.9018431118    0.9265107222   -1.1170287526 >
    0.0000289156    0.0000653556   -0.7554837826    0.0001527132 >
   -0.0000179378
CT  1   0.2758029573  -0.0016514634  -0.4469778721 -- FOR W= 0.233223I A.U.
    3.7953353627    1.1196693883    2.3353030411    0.0003429142 >
    0.3941910968    0.0025025486   -0.0041771731    0.4132297055 >
    0.0039497077
CT  2  -1.8966720134  -1.1860107446  -0.0001800918
    2.6756663066    3.7882011221    1.9687656361    0.9557591524 >
    0.0004171826    0.0004193911    0.7506379576    0.0002494164 >
    0.0002712138
CT  3  -1.8830881716   1.1979962440  -0.0001749745
    2.6635812887    3.8391400445    1.9788017136   -0.9584316316 >
    0.0004064416   -0.0004211717   -0.7426605103    0.0002410699 >
   -0.0002721004
CT  4   1.3450668670   0.5500428670  -0.0000295060
    2.1017310773    1.7638993544    0.9051418109    0.9734045741 >
    0.0000229328   -0.0000085319    0.6487822155    0.0001148649 >
    0.0000145965
CT  5   0.2758095429  -0.0016542009   0.4471118003
    3.7956568958    1.1199168186    2.3357885638    0.0003454911 >
   -0.3950001039   -0.0025085853   -0.0041739337   -0.4138903959 >
   -0.0039564509
CT  6   1.3479773325  -0.5509104771  -0.0000327330
    2.0993312877    1.7653378819    0.9050786066   -0.9798970873 >
    0.0000164668    0.0000128513   -0.6568771968    0.0001104005 >
   -0.0000104642
CT  1   0.2758029573  -0.0016514634  -0.4469778721 -- FOR W= 0.385897I A.U.
    2.7922810047    1.0014464682    1.9324662569    0.0003290756 >
    0.3051472376    0.0022507081   -0.0022074491    0.3259213649 >
    0.0029062031
CT  2  -1.8966720134  -1.1860107446  -0.0001800918
    2.2829075321    3.0326318816    1.7400343789    0.6882391623 >
    0.0002839897    0.0002769946    0.5433090801    0.0001811560 >
    0.0002197022
CT  3  -1.8830881716   1.1979962440  -0.0001749745
    2.2730961151    3.0688226431    1.7466964810   -0.6869796401 >
    0.0002763262   -0.0002774120   -0.5367570155    0.0001742933 >
   -0.0002198259
CT  4   1.3450668670   0.5500428670  -0.0000295060
    1.7972075447    1.5180522700    0.8476342158    0.7391966345 >
    0.0000120081    0.0000112917    0.4979620348    0.0000575217 >
    0.0000032722
CT  5   0.2758095429  -0.0016542009   0.4471118003
    2.7924332552    1.0016472123    1.9328605537    0.0003310683 >
   -0.3056223155   -0.0022559109   -0.0022047923   -0.3262839092 >
   -0.0029116024
CT  6   1.3479773325  -0.5509104771  -0.0000327330
    1.7949849533    1.5174211274    0.8481094535   -0.7436077673 >
    0.0000067055   -0.0000078866   -0.5025874456    0.0000541243 >
    0.0000000363
CT  1   0.2758029573  -0.0016514634  -0.4469778721 -- FOR W= 0.649114I A.U.
    1.7150492362    0.7821288812    1.3600326053    0.0002541386 >
    0.1891751536    0.0016656326   -0.0006984698    0.2019380709 >
    0.0017139758
CT  2  -1.8966720134  -1.1860107446  -0.0001800918
    1.6344465410    2.0093606816    1.3163694731    0.3760644954 >
    0.0001391053    0.0001443694    0.3139163775    0.0000997537 >
    0.0001347218
CT  3  -1.8830881716   1.1979962440  -0.0001749745
    1.6280953543    2.0285958741    1.3200969483   -0.3730211986 >
    0.0001345467   -0.0001439041   -0.3097337259    0.0000952572 >
   -0.0001342452
CT  4   1.3450668670   0.5500428670  -0.0000295060
    1.2925733569    1.1480529252    0.7148856007    0.4391098680 >
    0.0000074988    0.0000067815    0.3221355448    0.0000136326 >
   -0.0000053632
CT  5   0.2758095429  -0.0016542009   0.4471118003
    1.7150608306    0.7822599711    1.3602919994    0.0002553727 >
   -0.1893744963   -0.0016692139   -0.0006969430   -0.2020718302 >
   -0.0017176112
CT  6   1.3479773325  -0.5509104771  -0.0000327330
    1.2915834422    1.1462693015    0.7151232788   -0.4416679403 >
    0.0000042981   -0.0000045856   -0.3239251318    0.0000114323 >
    0.0000076026
CT  1   0.2758029573  -0.0016514634  -0.4469778721 -- FOR W= 1.153904I A.U.
    0.8494696169    0.4798715358    0.7561788244    0.0001276081 >
    0.0881898753    0.0008628635   -0.0001050154    0.0868305912 >
    0.0007585996
CT  2  -1.8966720134  -1.1860107446  -0.0001800918
    0.8688874860    0.9980354671    0.7502532457    0.1355220085 >
    0.0000438440    0.0000499985    0.1299595544    0.0000358356 >
    0.0000512467
CT  3  -1.8830881716   1.1979962440  -0.0001749745
    0.8661237222    1.0046284221    0.7517727767   -0.1335164944 >
    0.0000419881   -0.0000494487   -0.1281691749    0.0000338435 >
   -0.0000506830
CT  4   1.3450668670   0.5500428670  -0.0000295060
    0.7055020096    0.6929078234    0.4761974176    0.1843335329 >
    0.0000048545    0.0000000921    0.1653343144   -0.0000005652 >
   -0.0000061242
CT  5   0.2758095429  -0.0016542009   0.4471118003
    0.8494371875    0.4799295016    0.7562984895    0.0001281353 >
   -0.0882492123   -0.0008646391   -0.0001044559   -0.0868630967 >
   -0.0007604703
CT  6   1.3479773325  -0.5509104771  -0.0000327330
    0.7056937430    0.6915098122    0.4762155892   -0.1855693803 >
    0.0000035326    0.0000010169   -0.1658891456   -0.0000016992 >
    0.0000073146
CT  1   0.2758029573  -0.0016514634  -0.4469778721 -- FOR W= 2.307592I A.U.
    0.3007276894    0.1997237985    0.2928133745    0.0000345754 >
    0.0291486662    0.0002720455   -0.0000083364    0.0252031887 >
    0.0002319329
CT  2  -1.8966720134  -1.1860107446  -0.0001800918
    0.2965808691    0.3270706329    0.2758641806    0.0267697364 >
    0.0000073088    0.0000086922    0.0314420614    0.0000066343 >
    0.0000095280
CT  3  -1.8830881716   1.1979962440  -0.0001749745
    0.2959254645    0.3282855600    0.2762039352   -0.0261820052 >
    0.0000068973   -0.0000084555   -0.0309909193    0.0000061247 >
   -0.0000092650
CT  4   1.3450668670   0.5500428670  -0.0000295060
    0.2576229458    0.2810760559    0.2047153989    0.0521515283 >
    0.0000020149   -0.0000009516    0.0582815290   -0.0000007878 >
   -0.0000026622
CT  5   0.2758095429  -0.0016542009   0.4471118003
    0.3007082764    0.1997381965    0.2928467057    0.0000347165 >
   -0.0291603410   -0.0002726393   -0.0000082016   -0.0252077999 >
   -0.0002325860
CT  6   1.3479773325  -0.5509104771  -0.0000327330
    0.2578901522    0.2805372311    0.2047185724   -0.0525618889 >
    0.0000016481    0.0000013581   -0.0584694702   -0.0000011763 >
    0.0000031017
CT  1   0.2758029573  -0.0016514634  -0.4469778721 -- FOR W= 5.957643I A.U.
    0.0558933859    0.0420193338    0.0589369404    0.0000046368 >
    0.0053080501    0.0000446576   -0.0000023641    0.0046325025 >
    0.0000394388
CT  2  -1.8966720134  -1.1860107446  -0.0001800918
    0.0517213226    0.0559966455    0.0506700779    0.0023730518 >
    0.0000004683    0.0000005956    0.0035793572    0.0000004463 >
    0.0000007099
CT  3  -1.8830881716   1.1979962440  -0.0001749745
    0.0516421843    0.0560968082    0.0506961757   -0.0023009987 >
    0.0000004248   -0.0000005565   -0.0035256537    0.0000003811 >
   -0.0000006625
CT  4   1.3450668670   0.5500428670  -0.0000295060
    0.0500077175    0.0577745188    0.0432454244    0.0086392698 >
    0.0000003860   -0.0000001861    0.0106179877   -0.0000001114 >
   -0.0000004430
CT  5   0.2758095429  -0.0016542009   0.4471118003
    0.0558892320    0.0420208398    0.0589417168    0.0000046584 >
   -0.0053091467   -0.0000447640   -0.0000023409   -0.0046325334 >
   -0.0000395584
CT  6   1.3479773325  -0.5509104771  -0.0000327330
    0.0500639562    0.0576730566    0.0432473795   -0.0087109403 >
    0.0000003253    0.0000002669   -0.0106572841   -0.0000001810 >
    0.0000005286
CT  1   0.2758029573  -0.0016514634  -0.4469778721 -- FOR W=32.239080I A.U.
    0.0020876781    0.0016563212    0.0022763606    0.0000001647 >
    0.0001981160    0.0000015891   -0.0000001033    0.0001817950 >
    0.0000014337
CT  2  -1.8966720134  -1.1860107446  -0.0001800918
    0.0018631739    0.0020054921    0.0018449715    0.0000607945 >
    0.0000000091    0.0000000175    0.0001057519    0.0000000087 >
    0.0000000210
CT  3  -1.8830881716   1.1979962440  -0.0001749745
    0.0018605010    0.0020078293    0.0018453399   -0.0000586880 >
    0.0000000078   -0.0000000162   -0.0001041969    0.0000000066 >
   -0.0000000194
CT  4   1.3450668670   0.5500428670  -0.0000295060
    0.0019590251    0.0022898119    0.0017378769    0.0003149567 >
    0.0000000135   -0.0000000044    0.0003925110   -0.0000000038 >
   -0.0000000135
CT  5   0.2758095429  -0.0016542009   0.4471118003
    0.0020875154    0.0016563503    0.0022765151    0.0000001654 >
   -0.0001981402   -0.0000015929   -0.0000001024   -0.0001817828 >
   -0.0000014381
CT  6   1.3479773325  -0.5509104771  -0.0000327330
    0.0019610187    0.0022857779    0.0017379052   -0.0003175490 >
    0.0000000113    0.0000000075   -0.0003940127   -0.0000000064 >
    0.0000000167
 STOP
 PROJECTION BASIS SET
C1       -1.1274320583  -0.0009136724   0.0001120390    4.0
   S          6
     1      4563.2400000000     0.77820176
     2       682.0240000000     1.44869481
     3       154.9730000000     2.38308933
     4        44.4553000000     3.20008901
     5        13.0290000000     3.01300444
     6         1.8277300000     0.24759863
   L          3
     7        20.9642000000     0.80062852     2.57359222
     8         4.8033100000     2.12741989     2.40824822
     9         1.4593300000    -0.00286791     1.86528133
   L          1
    10         0.4834560000     0.41321665     0.57462733
   L          1
    11         0.1455850000     0.16797613     0.12818461
   L          1
    12         0.0438000000     0.06823633     0.02856161
   D          1
    13         2.5040000000     8.20388425
   D          1
    14         0.6260000000     0.72512777
   D          1
    15         0.1565000000     0.06409285
   F          1
    16         0.8000000000     0.89105994
  
O2        1.1230888982  -0.0006471117  -0.0000271324    6.0
   S          6
    17      8588.5000000000     1.20501289
    18      1297.2300000000     2.21620477
    19       299.2960000000     3.62745250
    20        87.3771000000     4.88845231
    21        25.6789000000     4.83572052
    22         3.7400400000     0.53822949
   L          3
    23        42.1175000000     1.34195780     5.58401753
    24         9.6283700000     3.58711431     5.73336569
    25         2.8533200000    -0.00512347     4.33295474
   L          1
    26         0.9056610000     0.66165918     1.25935210
   L          1
    27         0.2556110000     0.25620922     0.25906844
   L          1
    28         0.0845000000     0.11169986     0.06493980
   D          1
    29         5.1680000000    29.15572464
   D          1
    30         1.2920000000     2.57702633
   D          1
    31         0.3230000000     0.22777910
   F          1
    32         1.4000000000     3.13864741
  
H3       -2.1869977431   1.7656231498  -0.0004487199    1.0
   S          3
    33        33.8650000000     0.25506932
    34         5.0947900000     0.46010866
    35         1.1587900000     0.67832145
   S          1
    36         0.3258400000     0.30737135
   S          1
    37         0.1027410000     0.12933556
   S          1
    38         0.0360000000     0.05890294
   P          1
    39         1.5000000000     2.36621477
   P          1
    40         0.3750000000     0.41829163
  
H4       -2.2130926983  -1.7444740789  -0.0004546989    1.0
   S          3
    41        33.8650000000     0.25506932
    42         5.0947900000     0.46010866
    43         1.1587900000     0.67832145
   S          1
    44         0.3258400000     0.30737135
   S          1
    45         0.1027410000     0.12933556
   S          1
    46         0.0360000000     0.05890294
   P          1
    47         1.5000000000     2.36621477
   P          1
    48         0.3750000000     0.41829163
  
 STOP
 MULTIPLICITY    1
 STOP
 PROJECTION WAVEFUNCTION    6 110
 1  1-4.42722831E-02-7.51193302E-02 1.12761764E-01-3.35161826E-04-1.02955957E-01
 1  2 1.87383713E-01 1.56061854E-01-4.82186905E-04-1.57200359E-01 1.85122313E-02
 1  3 1.20131590E-02-3.41761329E-04-1.02457155E-01-4.56161048E-03-2.08038037E-03
 1  4-1.39712895E-04-9.11068968E-03 4.22476659E-03-5.78474397E-03-5.04755112E-03
 1  5-1.43029228E-05-4.27902920E-03 3.09972985E-06 1.47306031E-02-2.34421820E-02
 1  6-1.90455898E-02-5.09414424E-05-2.83881811E-02 1.66857482E-05-2.20501102E-02
 1  7-1.22359119E-02-6.71804970E-03 2.84095665E-05-3.60820567E-03 2.10405787E-05
 1  8 3.24085587E-03 5.36215325E-06 1.75772186E-03-2.49661464E-05-1.13977397E-02
 1  9-3.64574136E-03 1.81189588E-05-2.08077242E-03-3.67201603E-06-1.92217971E-05
 1 10-4.40624850E-02-7.66886726E-02-1.35762979E-01-2.15293311E-04-1.58625975E-01
 1 11 2.04405030E-01-1.96962038E-01-3.27378428E-04-2.37390526E-01 1.29999969E-01
 1 12-1.34274314E-01-2.82016635E-04-2.24341533E-01 8.49197873E-03-1.32744139E-02
 1 13 5.59686846E-05-2.11970040E-02-9.10074487E-04-3.68346519E-03-3.85102042E-03
 1 14 4.47488851E-06 1.67309997E-03 1.06535748E-06 1.34766242E-02-1.71650023E-02
 1 15-1.63548442E-02 4.71906850E-05 1.46817633E-02 9.97035284E-06 1.29703338E-04
 1 16-1.23197731E-02-1.15921812E-02 5.17100510E-05 2.45580110E-02 8.58978849E-07
 1 17-1.02726581E-02 4.49539795E-06-3.00523644E-03-2.13616972E-05-5.34169189E-03
 1 18 2.99141817E-03 3.06685401E-04 1.28894867E-03-3.83087480E-07-7.21581336E-06
 1 19-7.58467967E-03-1.47113461E-02-3.18039184E-03-1.08284251E-03 1.09436297E-03
 1 20 1.04350973E-03-2.61124770E-03 2.00113847E-03-4.51380077E-04-5.29358071E-03
 1 21-7.65028451E-03-1.44586360E-02-2.96326067E-03-1.32499971E-03 1.06520486E-03
 1 22-1.09789764E-03-2.61294660E-03 2.07618250E-03 4.75718857E-04-5.27268081E-03
 2  1-5.97847677E-02-1.06809476E-01-8.91662681E-02-1.40005018E-01-1.74642427E-05
 2  2 2.74653048E-01-1.30921322E-01-2.11632812E-01-2.49835669E-05 2.21080001E-01
 2  3-6.86942235E-02-1.27355045E-01-4.78601441E-06 4.45330070E-03-2.75317679E-03
 2  4 2.10292742E-03 1.23673453E-06-7.03151683E-03-2.24056099E-03-7.24104890E-03
 2  5 4.84430376E-03 1.01646972E-06 2.06517668E-06-1.24176365E-02 4.29146807E-03
 2  6-2.32956379E-02 2.97991665E-02 6.31217131E-06 1.08224526E-05-3.00396323E-02
 2  7-2.53018319E-02-2.87014178E-02 3.03943946E-02 1.74279041E-06 4.60650660E-06
 2  8 3.53494811E-03-4.15770454E-03 1.37662004E-06-1.94475609E-03-1.42500216E-06
 2  9-6.80385029E-03-2.54906808E-06 1.59647380E-03 1.58579309E-03-2.02940968E-06
 2 10 4.89152893E-03 9.06637015E-03 1.49720885E-02 1.22818754E-02-1.85117690E-06
 2 11-2.77309362E-02 2.45609193E-02 1.99577495E-02-2.83834127E-06-3.78123275E-02
 2 12 2.84509152E-02 3.79949838E-02-3.19613813E-07 3.44926263E-02-7.67471561E-03
 2 13 2.37338921E-02 1.80873485E-06 3.73150816E-04 3.32620520E-04 3.89800584E-04
 2 14 5.89490379E-04 9.11431455E-08-1.18078613E-08-1.99807860E-03 1.97467226E-03
 2 15 1.97621220E-03 6.69596544E-03 1.29568692E-06-1.72406944E-08 1.12858345E-03
 2 16 1.91765797E-03 4.76742356E-03 3.38989724E-03 5.83808506E-07-6.65632965E-07
 2 17 1.93367394E-03 6.08054552E-04 7.94049938E-08-2.50032975E-03-6.32840111E-07
 2 18-8.32234364E-04 1.28331383E-07-6.74670026E-04 2.11105141E-04 1.32895913E-07
 2 19-2.04050620E-02-4.88181250E-02-2.66411611E-02-1.66046909E-02-2.18370946E-03
 2 20-1.94467349E-03-8.28855069E-07-4.26173323E-03-1.67991449E-03 9.40025812E-08
 2 21 1.91844942E-01 2.71207529E-01 8.21365981E-02 1.24100628E-02 6.58525692E-03
 2 22 1.09406542E-02 4.04591018E-06 7.13945327E-03 1.40324715E-02 6.77143213E-06
 3  1-5.94595014E-02-1.06201198E-01-8.76945708E-02 1.40958172E-01-1.64769575E-05
 3  2 2.73065875E-01-1.28729827E-01 2.13042346E-01-2.35533531E-05 2.20703106E-01
 3  3-6.82789125E-02 1.28678479E-01-4.04131051E-06 5.06537815E-03-2.94549963E-03
 3  4-2.14524416E-03 1.22427332E-06-7.10062160E-03-2.10428838E-03-7.17765833E-03
 3  5-4.76157654E-03 9.67632165E-07-2.04236147E-06-1.30389653E-02 5.16016843E-03
 3  6-2.30785580E-02-2.94977926E-02 6.12317362E-06-1.07708615E-05-3.05170177E-02
 3  7-2.46757179E-02-2.85847629E-02-3.06354000E-02 1.62962224E-06-4.63013190E-06
 3  8 3.37221167E-03 4.48428009E-03 1.35206682E-06 1.73364906E-03-1.35295567E-06
 3  9-6.77877541E-03-2.59849025E-06 1.54955743E-03-1.57445296E-03 1.96694380E-06
 3 10 4.91840490E-03 9.13773618E-03 1.48956548E-02-1.23234247E-02-1.49317885E-06
 3 11-2.79416895E-02 2.43821481E-02-2.00392953E-02-2.30887589E-06-3.85135847E-02
 3 12 2.88670371E-02-3.83451632E-02 1.27278033E-07 3.40945746E-02-7.47010445E-03
 3 13-2.40360088E-02 1.80845074E-06 3.85837498E-04 3.43004382E-04 3.95860095E-04
 3 14-5.95607183E-04 8.53915193E-08 1.08917225E-08-1.85049916E-03 1.99199603E-03
 3 15 1.97270218E-03-6.79315312E-03 1.21626369E-06 2.08433238E-08 1.08170265E-03
 3 16 1.94211158E-03 4.85836850E-03-3.43017652E-03 5.02521734E-07 6.60746162E-07
 3 17 1.89383693E-03-6.14505416E-04 8.81043050E-08 2.54780312E-03-5.98119851E-07
 3 18-8.20362379E-04 1.25957892E-07-6.78826783E-04-2.11106067E-04-1.40849114E-07
 3 19 1.91560177E-01 2.71681831E-01 8.32157950E-02 1.24989582E-02 6.32252289E-03
 3 20-1.09858032E-02 3.98241985E-06 6.76174723E-03-1.43836498E-02 6.73418486E-06
 3 21-2.02824571E-02-4.88779538E-02-2.66552217E-02-1.69027389E-02-2.19511444E-03
 3 22 2.02461888E-03-8.14995009E-07-4.35526534E-03 1.77814673E-03 1.23977149E-07
 4  1 9.90023713E-03 1.89602199E-02-2.88146449E-02 2.50528555E-02 6.31126710E-07
 4  2-5.87282520E-02-4.78402379E-02 3.45674359E-02-9.72907418E-08 2.07164391E-02
 4  3 2.50010701E-02-1.15288628E-02-3.42479259E-06 5.43264636E-03 4.96943681E-04
 4  4 3.70660177E-02 4.97508518E-07 8.85293820E-04 8.21968110E-04 8.61304705E-04
 4  5 5.31016540E-03 4.21312976E-08 7.93454781E-08 2.77223360E-03 3.40408016E-03
 4  6 3.72615487E-03 3.43240462E-02 1.01734112E-06 1.08175135E-06 2.31368001E-02
 4  7-2.37431986E-03-7.28088524E-04 1.16080117E-04-1.15002222E-06-1.52626003E-06
 4  8 2.33955620E-03-5.45214806E-03 4.51256831E-08 9.51471953E-03-1.12236822E-07
 4  9-3.21541227E-05 2.15461482E-07 3.31271352E-04-1.21033817E-03-1.30499402E-06
 4 10-7.21621520E-02-1.34276429E-01 1.16886692E-01 2.08361066E-01-2.59231407E-06
 4 11 3.62378394E-01 1.68585563E-01 3.09719087E-01-3.28609066E-06 4.28847754E-01
 4 12 1.54721191E-01 2.99156612E-01-3.23346879E-06 1.50717778E-02 1.81604039E-02