 $CONTRL  RUNTYP=optimize  coord=fragonly units=angs $end                              
 $SYSTEM TIMLIM=99999999 MWORDS=50 $END
 $statpt opttol=1.0e-5 nstep=100 hssend=.true. $end
 $force nvib=2 $end
 $globop  tempi=12000 tempf=800 nprt=1 mcmin=.t. nstmin=200 $end                  
 $efrag                                                                         
 coord=cart polmethd=frgscf   MXMO=15 MXBF=330
 FRAGNAME=BENZEN
 C1                3.5146113306   4.1481246540   2.2528565464
 H2                4.2103289790   4.3002256391   3.0678507391
 C3                2.2901433568   3.5245675236   2.4887555316
 FRAGNAME=WATER 
 O1                6.7748271308   0.0582152882   4.0215937368
 H2                6.1223403969  -0.4539563419   3.5712386131
 H3                6.6638326752  -0.1110788061   4.9434929691
 FRAGNAME=WATER 
 O1                7.2646839372  -2.1847184051   0.6142366883
 H2                7.9352749228  -1.7474188802   1.1141919959
 H3                7.6068078613  -3.0343676583   0.3863643091
 FRAGNAME=WATER 
 O1                4.4165586393   1.1587960043   0.8344253561
 H2                4.9395557112   1.7596678204   1.3406916670
 H3                3.5982159848   1.5943829465   0.6570619730
 FRAGNAME=WATER 
 O1                6.4491334480   2.3513067722   2.2889619136
 H2                6.6407203206   1.7815415300   3.0166572435
 H3                7.2165935422   2.3570721947   1.7395529422
 FRAGNAME=WATER 
 O1                5.1533791147  -1.1657535435   2.2898948545
 H2                5.6547549399  -1.7003302878   1.6951441165
 H3                4.7065589677  -0.5213611132   1.7645486771
 FRAGNAME=WATER 
 O1                8.7921242221  -0.5124146928   2.0573443182
 H2                8.9257705860   0.2919450020   1.5819259921
 H3                8.3492646491  -0.2834599233   2.8588014700
 FRAGNAME=WATER 
 O1                8.4562210170   1.7353498621   0.2994184189
 H2                7.8523131931   1.2708384420  -0.2577197461
 H3                9.0188674706   2.2366995170  -0.2688737118
 FRAGNAME=WATER 
 O1                6.5474059518   0.2240550449  -0.7947657515
 H2                6.6766017797  -0.6822830569  -0.5651178964
 H3                5.7069390779   0.4750755627  -0.4462222283
 $end                                                                           

 $water
PLEASE REPLACE THIS LINE WITH AN APPROPRIATE TITLE/DESCRIPTION
 COORDINATES 
O1          .0000000000    .0000000000   -.1191510000  15.9949100  8.0
H2        -1.4310420000    .0000000000    .9455100000   1.0078250  1.0
H3         1.4310420000    .0000000000    .9455100000   1.0078250  1.0
BO21       -.7155210000    .0000000000    .4131795000    .0000000   .0
BO31        .7155210000    .0000000000    .4131795000    .0000000   .0
 STOP
 MONOPOLES 
O1        -5.8901454942   8.00000
H2         -.5771868959   1.00000
H3         -.5771868959   1.00000
BO21      -1.4777403587    .00000
BO31      -1.4777403587    .00000
 STOP
 DIPOLES 
O1           .0000000000     .0000000000    1.3962597477
H2           .0923675521     .0000000000    -.0750635596
H3          -.0923675521     .0000000000    -.0750635596
BO21         .1004747657     .0000000000     .1008959089
BO31        -.1004747657     .0000000000     .1008959089
 STOP
 QUADRUPOLES 
O1         -1.2556737198   -2.7602367870   -2.3007107771     .0000000000 >
     .0000000000     .0000000000
H2          -.2250056060    -.3581924032    -.2933787371     .0000000000 >
    -.0550596153     .0000000000
H3          -.2250056060    -.3581924032    -.2933787371     .0000000000 >
     .0550596153     .0000000000
BO21        -.3959827763   -1.0684162497    -.7331081716     .0000000000 >
    -.2418878269     .0000000000
BO31        -.3959827763   -1.0684162497    -.7331081716     .0000000000 >
     .2418878269     .0000000000
 STOP
 OCTUPOLES  
O1           .0000000000     .0000000000    2.8547603821     .0000000000 >
     .8708932044     .0000000000    1.1503433598     .0000000000 >
     .0000000000     .0000000000
H2           .2105255036     .0000000000    -.2021990806     .0000000000 >
    -.0205242017     .1061120728    -.0794297443     .0630374567 >
     .0000000000     .0000000000
H3          -.2105255036     .0000000000    -.2021990806     .0000000000 >
    -.0205242017    -.1061120728    -.0794297443    -.0630374567 >
     .0000000000     .0000000000
BO21         .2160196997     .0000000000     .1815173236     .0000000000 >
     .1261698266     .1376227136     .0719853588     .1311632211 >
     .0000000000     .0000000000
BO31        -.2160196997     .0000000000     .1815173236     .0000000000 >
     .1261698266    -.1376227136     .0719853588    -.1311632211 >
     .0000000000     .0000000000
 STOP
 POLARIZABLE POINTS
CT1   -.7509110      -.000000    .489573
    2.70130     .7878219    1.783685     .000001 >
   -1.300963    -.000001     .00000   -1.164941 >
    -.00000
CT2    .7509110      -.000000    .489573
    2.70130     .7878219    1.783685    -.000001 >
    1.300963    -.000001    -.00000    1.164941 >
    -.00000
CT3   -.000000    .49666   -.38946
    1.45176    2.7100    1.85828    -.000000 >
     .000000   -1.09562    -.000000     .000000 >
    -.99999
CT4    .000000   -.49666   -.38946
    1.45176    2.7100    1.85828    -.000000 >
    -.000000    1.09562    -.000000    -.000000 >
     .99999
 STOP
 DYNAMIC POLARIZABLE POINTS
CT  1   -.7509110      -.000000    .489573     -- FOR W=  .002792I A.U.
    2.70120  .78777    1.78360     .00000 >
   -1.30099 -.00000     .00000   -1.16485 >
    -.00000
CT  2    .7509110      -.000000    .489573
    2.70120  .78777    1.78360    -.00000 >
    1.30099 -.00000    -.00000    1.16485 >
    -.00000
CT  3   -.0000000       .49666   -.38946
    1.4518    2.7100    1.8582    -.000000 >
     .0000   -1.0955    -.0000     .000000 >
    -.9999
CT  4    .000000   -.49666   -.38946
    1.4518    2.7100    1.8582    -.000000 >
    -.0000    1.0955    -.0000    -.000000 >
     .9999
CT  1   -.7509110      -.000000    .489573     -- FOR W=  .002792I A.U.
    2.6998     .78765    1.78273     .00000 >
   -1.3000    -.00000     .00000   -1.16374 >
    -.0000
CT  2    .7509110      -.000000    .489573
    2.6998     .78765    1.78273    -.00000 >
    1.3000    -.00000    -.00000    1.16374 >
    -.0000
CT  3   -.0000000       .49666   -.38946
    1.45131    2.70774    1.85721    -.00000 >
     .00000   -1.09390    -.00000     .00000 >
    -.99902
CT  4    .000000   -.49666   -.38946
    1.45131    2.70774    1.85721    -.00000 >
    -.00000    1.09391    -.00000    -.00000 >
     .99902
CT  1   -.7509110      -.000000    .489573     -- FOR W=  .002792I A.U.
    2.69207     .78696    1.77769     .00000 >
   -1.29455    -.00000     .00000   -1.15730 >
    -.00000
CT  2    .7509110      -.000000    .489573
    2.69206     .78696    1.77769    -.00000 >
    1.29456    -.00000    -.00000    1.15730 >
    -.00000
CT  3   -.0000000       .49666   -.38946
    1.44837    2.69454    1.85113    -.00000 >
     .00000   -1.08419    -.00000     .00000 >
    -.99360
CT  4    .000000   -.49666   -.38946
    1.44837    2.69454    1.85113    -.00000 >
    -.00000    1.08419    -.00000    -.00000 >
     .99360
CT  1   -.7509110      -.000000    .489573     -- FOR W=  .002792I A.U.
    2.66501     .78457    1.76031     .00000 >
   -1.27553    -.00000     .00000   -1.13523 >
    -.00000
CT  2    .7509110      -.000000    .489573
    2.66501     .78457    1.76031    -.00000 >
    1.27553    -.00000    -.00000    1.13523 >
    -.00000
CT  3   -.0000000       .49666   -.38946
    1.43813    2.64980    1.83027    -.00000 >
     .00000   -1.05160    -.00000     .00000 >
    -.97505
CT  4    .000000   -.49666   -.38946
    1.43813    2.64980    1.83027    -.00000 >
    -.00000    1.05160    -.00000    -.00000 >
     .97505
CT  1   -.7509110      -.000000    .489573     -- FOR W=  .002792I A.U.
    2.59086     .77803    1.71348     .00000 >
   -1.22378    -.00000     .00000   -1.07697 >
    -.00000
CT  2    .7509110      -.000000    .489573
    2.59086     .77803    1.71348    -.00000 >
    1.22378    -.00000    -.00000    1.07697 >
    -.00000
CT  3   -.0000000       .49666   -.38946
    1.40983    2.53435    1.77482    -.00000 >
     .00000    -.97045    -.00000     .00000 >
    -.92622
CT  4    .000000   -.49666   -.38946
    1.40983    2.53435    1.77482    -.00000 >
    -.00000     .97045    -.00000    -.00000 >
     .92622
CT  1   -.7509110      -.000000    .489573     -- FOR W=  .002792I A.U.
    2.41593     .76210    1.60676     .00000 >
   -1.10412    -.00000     .00000    -.95090 >
    -.00000
CT  2    .7509110      -.000000    .489573
    2.41593     .76210    1.60676    -.00000 >
    1.10412    -.00000    -.00000     .95090 >
    -.00000
CT  3   -.0000000       .49666   -.38946
    1.34165    2.29440    1.65243    -.00000 >
     .00000    -.81536    -.00000     .00000 >
    -.82123
CT  4    .000000   -.49666   -.38946
    1.34165    2.29440    1.65243    -.00000 >
    -.00000     .81536    -.00000    -.00000 >
     .82123
CT  1   -.7509110      -.000000    .489573     -- FOR W=  .002792I A.U.
    2.06360     .72436    1.40090     .00000 >
    -.87453    -.00000     .00000    -.73483 >
    -.00000
CT  2    .7509110      -.000000    .489573
    2.06360     .72436    1.40090    -.00000 >
     .87453    -.00000    -.00000     .73483 >
    -.00000
CT  3   -.0000000       .49666   -.38946
    1.19692    1.89510    1.42984    -.00000 >
     .00000    -.59777    -.00000     .00000 >
    -.64304
CT  4    .000000   -.49666   -.38946
    1.19692    1.89510    1.42984    -.00000 >
    -.00000     .59777    -.00000    -.00000 >
     .64304
CT  1   -.7509110      -.000000    .489573     -- FOR W=  .002792I A.U.
    1.49887     .63380    1.07144     .00000 >
    -.54480    -.00000     .00000    -.46053 >
    -.00000
CT  2    .7509110      -.000000    .489573
    1.49887     .63380    1.07144    -.00000 >
     .54480    -.00000    -.00000     .46053 >
    -.00000
CT  3   -.0000000       .49666   -.38946
     .93689    1.36288    1.09516    -.00000 >
     .00000    -.37519    -.00000     .00000 >
    -.41704
CT  4    .000000   -.49666   -.38946
     .93689    1.36288    1.09516    -.00000 >
    -.00000     .37519    -.00000    -.00000 >
     .41704
CT  1   -.7509110      -.000000    .489573     -- FOR W=  .002792I A.U.
     .83584     .44581     .64782     .00000 >
    -.23574    -.00000     .00000    -.21442 >
    -.00000
CT  2    .7509110      -.000000    .489573
     .83584     .44581     .64782    -.00000 >
     .23574    -.00000    -.00000     .21442 >
    -.00000
CT  3   -.0000000       .49666   -.38946
     .57141     .78622     .66642    -.00000 >
     .00000    -.19225    -.00000     .00000 >
    -.20653
CT  4    .000000   -.49666   -.38946
     .57141     .78622     .66642    -.00000 >
    -.00000     .19225    -.00000    -.00000 >
     .20653
CT  1   -.7509110      -.000000    .489573     -- FOR W=  .002792I A.U.
     .30715     .19899     .25820     .00000 >
    -.06393    -.00000     .00000    -.06447 >
    -.00000
CT  2    .7509110      -.000000    .489573
     .30715     .19899     .25820    -.00000 >
     .06393    -.00000    -.00000     .06447 >
    -.00000
CT  3   -.0000000       .49666   -.38946
     .22667     .30622     .26315    -.00000 >
     .00000    -.06694    -.00000     .00000 >
    -.06829
CT  4    .000000   -.49666   -.38946
     .22667     .30622     .26315    -.00000 >
    -.00000     .06694    -.00000    -.00000 >
     .06829
CT  1   -.7509110      -.000000    .489573     -- FOR W=  .002792I A.U.
     .05718     .04181     .05081     .00000 >
    -.00902    -.00000     .00000    -.00962 >
    -.00000
CT  2    .7509110      -.000000    .489573
     .05718     .04181     .05081    -.00000 >
     .00902    -.00000    -.00000     .00962 >
    -.00000
CT  3   -.0000000       .49666   -.38946
     .04542     .06074     .05203    -.00000 >
     .00000    -.01186    -.00000     .00000 >
    -.01192
CT  4    .000000   -.49666   -.38946
     .04542     .06074     .05203    -.00000 >
    -.00000     .01186    -.00000    -.00000 >
     .01192
CT  1   -.7509110      -.000000    .489573     -- FOR W=  .002792I A.U.
     .00214     .00163     .00193     .00000 >
    -.00029    -.00000     .00000    -.00032 >
    -.00000
CT  2    .7509110      -.000000    .489573
     .00214     .00163     .00193    -.00000 >
     .00029    -.00000    -.00000     .00032 >
    -.00000
CT  3   -.0000000       .49666   -.38946
     .00178     .00237     .00204    -.00000 >
     .00000    -.00044    -.00000     .00000 >
    -.00044
CT  4    .000000   -.49666   -.38946
     .00178     .00237     .00204    -.00000 >
    -.00000     .00044    -.00000    -.00000 >
     .00044
 STOP
 PROJECTION BASIS SET
O1            .0000000000    .0000000000   -.1191510000    6.0
   S          6
     1      8588.5000000000  1.20501289
     2      1297.2300000000  2.21620477
     3       299.2960000000  3.62745250
     4        87.3771000000  4.88845231
     5        25.6789000000  4.83572052
     6         3.7400400000   .53822949
   L          3
     7        42.1175000000  1.34195780  5.58401753
     8         9.6283700000  3.58711431  5.73336569
     9         2.8533200000  -.00512347  4.33295474
   L          1
    10          .9056610000   .66165918  1.25935210
   L          1
    11          .2556110000   .25620922   .25906844
   L          1
    12          .0845000000   .11169986   .06493980
   D          1
    13         5.1680000000 29.15572464
   D          1
    14         1.2920000000  2.57702633
   D          1
    15          .3230000000   .22777910
   F          1
    16         1.4000000000  3.13864741
  
H2          -1.4310420000    .0000000000    .9455100000    1.0
   S          3
    17        33.8650000000   .25506932
    18         5.0947900000   .46010866
    19         1.1587900000   .67832145
   S          1
    20          .3258400000   .30737135
   S          1
    21          .1027410000   .12933556
   S          1
    22          .0360000000   .05890294
   P          1
    23         1.5000000000  2.36621477
   P          1
    24          .3750000000   .41829163
  
H3           1.4310420000    .0000000000    .9455100000    1.0
   S          3
    25        33.8650000000   .25506932
    26         5.0947900000   .46010866
    27         1.1587900000   .67832145
   S          1
    28          .3258400000   .30737135
   S          1
    29          .1027410000   .12933556
   S          1
    30          .0360000000   .05890294
   P          1
    31         1.5000000000  2.36621477
   P          1
    32          .3750000000   .41829163
  
 STOP
 PROJECTION WAVEFUNCTION    4  65
 1  1 5.03160031E-02 8.92635779E-02 1.64179768E-01 3.95714055E-07-1.25705374E-01
 1  2-2.37764692E-01 2.44466084E-01 5.90976791E-07-1.90834374E-01-1.18030350E-01
 1  3 1.12172556E-01 5.61946313E-07-1.22210276E-01 1.94823529E-02 6.94575693E-03
 1  4 1.05496238E-07-1.81324901E-02 3.63236195E-03 4.92094488E-03 3.52129160E-03
 1  5 0.00000000E+00 2.24160124E-03 1.45010821E-09 7.89186746E-03 2.09871562E-02
 1  6 4.32403598E-03 0.00000000E+00 1.91897289E-02 1.78995850E-08 3.38926127E-02
 1  7 2.32690749E-02 1.25353957E-02 0.00000000E+00-6.36848136E-03 3.22704959E-08
 1  8 6.36375372E-03 2.02006102E-09-3.50842237E-03 1.25480964E-08-4.03214133E-03
 1  9-1.32220715E-03 1.10189652E-03 1.46170403E-03 7.79307555E-09 0.00000000E+00
 1 10-1.92354419E-01-2.98140418E-01-6.66928923E-02 1.05096466E-03-1.46530250E-02
 1 11 1.64279789E-08 1.00302991E-02-4.42899934E-02 2.85208468E-08 3.13616158E-02
 1 12 1.63247888E-02 5.82460466E-02 1.89402036E-02-5.61771303E-04 4.55519551E-03
 1 13 1.64279789E-08-5.03192733E-03-1.68792664E-03 2.85208468E-08-1.42942601E-02
 2  1 5.03160119E-02 8.92635929E-02-1.64179705E-01 2.54737317E-07-1.25705443E-01
 2  2-2.37764730E-01-2.44465990E-01 3.80604438E-07-1.90834477E-01-1.18030319E-01
 2  3-1.12172513E-01 3.61794535E-07-1.22210346E-01 1.94823712E-02-6.94575427E-03
 2  4 6.79210122E-08-1.81325007E-02 3.63236228E-03 4.92094583E-03 3.52129181E-03
 2  5 0.00000000E+00-2.24160039E-03 9.33614498E-10 7.89186768E-03 2.09871612E-02
 2  6 4.32403309E-03 0.00000000E+00-1.91897216E-02 1.15241828E-08 3.38926221E-02
 2  7 2.32690777E-02 1.25353927E-02 0.00000000E+00 6.36847894E-03 2.07765204E-08
 2  8-6.36375128E-03 1.23569176E-09-3.50842434E-03 8.04856012E-09-4.03214305E-03
 2  9 1.32220665E-03 1.10189697E-03-1.46170347E-03 4.98716045E-09 0.00000000E+00
 2 10 1.63247133E-02 5.82459200E-02 1.89401724E-02-5.61771097E-04-4.55520124E-03
 2 11 1.05767274E-08-5.03192426E-03 1.68790672E-03 1.83624063E-08-1.42942474E-02
 2 12-1.92354415E-01-2.98140408E-01-6.66928908E-02 1.05096425E-03 1.46530269E-02
 2 13 1.05767274E-08 1.00302964E-02 4.42899958E-02 1.83624063E-08 3.13616110E-02
 3  1 6.63601871E-02 1.22323401E-01 4.36242810E-08-2.04714563E-01 1.33998827E-01
 3  2-3.35958797E-01 6.48201730E-08-3.05833910E-01 1.93388568E-01-4.85162499E-01
 3  3 2.97987355E-08-2.90737432E-01 1.45976364E-01-6.84942130E-02 1.84446457E-09
 3  4-5.45812021E-02 2.32435390E-02 6.83677364E-03 6.05787752E-03 7.30083082E-03
 3  5 0.00000000E+00 5.95263284E-10-7.50250916E-04 1.80106913E-02 1.93483072E-02
 3  6 2.91166517E-02 0.00000000E+00 5.09588450E-09-9.26081240E-03 2.25810322E-02
 3  7 3.92548220E-02 4.93446507E-02 0.00000000E+00-1.68703943E-09-1.66959741E-02
 3  8 1.74423409E-09-1.00339240E-03 4.03346896E-03-6.47526197E-03 1.09150335E-03
 3  9-3.27593969E-10-1.66771257E-04 4.12889377E-10-4.01512750E-03 0.00000000E+00
 3 10 1.19861146E-02 7.94045447E-02 3.66314048E-02 1.23725521E-03 7.30588266E-04
 3 11-8.49943898E-03 4.90402652E-03 1.89966304E-02-1.47559964E-02-4.81225433E-03
 3 12 1.19861700E-02 7.94046393E-02 3.66314275E-02 1.23725478E-03-7.30590947E-04
 3 13-8.49943898E-03 4.90402252E-03-1.89966427E-02-1.47559964E-02-4.81226645E-03
 4  1 6.63603150E-02 1.22323648E-01-6.94538391E-08 2.04713675E-01 1.33999807E-01
 4  2-3.35959499E-01-1.03280765E-07 3.05832584E-01 1.93390013E-01-4.85164228E-01
 4  3-4.74242481E-08 2.90736171E-01 1.45977386E-01-6.84945720E-02-2.93720477E-09
 4  4 5.45809654E-02 2.32436974E-02 6.83679175E-03 6.05788816E-03 7.30085130E-03
 4  5 0.00000000E+00-9.47922875E-10 7.50247662E-04 1.80107443E-02 1.93483244E-02
 4  6 2.91167642E-02 0.00000000E+00-8.11490583E-09 9.26077223E-03 2.25810225E-02
 4  7 3.92549183E-02 4.93448249E-02 0.00000000E+00 2.69721594E-09 1.66959017E-02
 4  8-2.74541048E-09 1.00338798E-03 4.03349770E-03 6.47523386E-03 1.09152094E-03
 4  9 5.35610120E-10-1.66775438E-04-6.42851645E-10 4.01511005E-03 0.00000000E+00
 4 10 1.19865180E-02 7.94053929E-02 3.66316690E-02 1.23725925E-03 7.30625425E-04
 4 11 8.49940212E-03 4.90403467E-03 1.89967963E-02 1.47559324E-02-4.81231803E-03
 4 12 1.19864298E-02 7.94052421E-02 3.66316328E-02 1.23725993E-03-7.30621155E-04
 4 13 8.49940212E-03 4.90404104E-03-1.89967769E-02 1.47559324E-02-4.81229872E-03
 FOCK MATRIX ELEMENTS
    -.9168053     -.1865475217    -.9168053    -.1823665 >
    -.1823665       -.6752196    -.1823665    -.1823665 >
    -.1644092834    -.6752196
 LMO CENTROIDS
CT1   -.7509110   -.000000    .489573
CT2    .7509110   -.000000    .489573
CT3   -.0000000    .49666    -.389465
CT4    .0000000   -.49666    -.389465
 STOP
SCREEN3      (FROM VDWSCL=    .700)
 O1         1.000000000   1.970604931
 H2         1.000000000   1.867657242
 H3         1.000000000   1.867657242
 BO21       1.000000000   3.126976119
 BO31       1.000000000   3.126976119
STOP
POLSCR
 CT1     1.50
 CT2     1.50
 CT3     1.50
 CT4     1.50
STOP
 $end

 

 $benzene
PLEASE REPLACE THIS LINE WITH AN APPROPRIATE TITLE/DESCRIPTION
 COORDINATES 
C1          .0231281674   5.6577739771   2.6346559721  12.0000000  6.0
H2          .0231281674   5.6577739771   4.6799064086   1.0078250  1.0
C3         2.3048071733   5.6577739771   1.3173279860  12.0000000  6.0
H4         4.0760459999   5.6577739771   2.3399532043   1.0078250  1.0
C5         2.3048071733   5.6577739771  -1.3173279860  12.0000000  6.0
H6         4.0760459999   5.6577739771  -2.3399532043   1.0078250  1.0
C7          .0231281674   5.6577739771  -2.6346559721  12.0000000  6.0
H8          .0231281674   5.6577739771  -4.6799064086   1.0078250  1.0
C9        -2.2585508196   5.6577739771  -1.3173279860  12.0000000  6.0
H10       -4.0297896462   5.6577739771  -2.3399532043   1.0078250  1.0
C11       -2.2585508196   5.6577739771   1.3173279860  12.0000000  6.0
H12       -4.0297896462   5.6577739771   2.3399532043   1.0078250  1.0
BO21        .0231281674   5.6577739771   3.6572811903    .0000000   .0
BO31       1.1639676703   5.6577739771   1.9759919791    .0000000   .0
BO43       3.1904265866   5.6577739771   1.8286405952    .0000000   .0
BO53       2.3048071733   5.6577739771    .0000000000    .0000000   .0
BO65       3.1904265866   5.6577739771  -1.8286405952    .0000000   .0
BO75       1.1639676703   5.6577739771  -1.9759919791    .0000000   .0
BO87        .0231281674   5.6577739771  -3.6572811903    .0000000   .0
BO97      -1.1177113261   5.6577739771  -1.9759919791    .0000000   .0
BO109     -3.1441702329   5.6577739771  -1.8286405952    .0000000   .0
BO111     -1.1177113261   5.6577739771   1.9759919791    .0000000   .0
BO119     -2.2585508196   5.6577739771    .0000000000    .0000000   .0
BO1211    -3.1441702329   5.6577739771   1.8286405952    .0000000   .0
 STOP
 MONOPOLES 
C1        -3.4666789501   6.00000
H2         -.6080213178   1.00000
C3        -3.4666799777   6.00000
H4         -.6080213324   1.00000
C5        -3.4666799852   6.00000
H6         -.6080213310   1.00000
C7        -3.4666789607   6.00000
H8         -.6080213146   1.00000
C9        -3.4666800472   6.00000
H10        -.6080213147   1.00000
C11       -3.4666800401   6.00000
H12        -.6080213160   1.00000
BO21      -1.0669653990    .00000
BO31      -1.8583385827    .00000
BO43      -1.0669647640    .00000
BO53      -1.8583347150    .00000
BO65      -1.0669647657    .00000
BO75      -1.8583385886    .00000
BO87      -1.0669654014    .00000
BO97      -1.8583386194    .00000
BO109     -1.0669647797    .00000
BO111     -1.8583386136    .00000
BO119     -1.8583347509    .00000
BO1211    -1.0669647781    .00000
 STOP
 DIPOLES 
C1           .0000000002     .0000000000    -.0807940773
H2           .0000000024     .0000000000    -.2228955785
C3          -.0699677943     .0000000000    -.0403961417
H4          -.1930332440     .0000000000    -.1114478045
C5          -.0699677946     .0000000000     .0403961420
H6          -.1930332427     .0000000000     .1114478045
C7           .0000000002     .0000000000     .0807940775
H8           .0000000023     .0000000000     .2228955756
C9           .0699677968     .0000000000     .0403961422
H10          .1930332322     .0000000000     .1114477950
C11          .0699677964     .0000000000    -.0403961419
H12          .1930332335     .0000000000    -.1114477950
BO21         .0000000047     .0000000000    -.3046753172
BO31        -.0868627398     .0000000000    -.1504513733
BO43        -.2638547974     .0000000000    -.1523379635
BO53        -.1737333873     .0000000000     .0000000011
BO65        -.2638547965     .0000000000     .1523379642
BO75        -.0868627399     .0000000000     .1504513747
BO87         .0000000047     .0000000000     .3046753158
BO97         .0868627506     .0000000000     .1504513744
BO109        .2638547934     .0000000000     .1523379573
BO111        .0868627505     .0000000000    -.1504513731
BO119        .1737333932     .0000000000     .0000000011
BO1211       .2638547944     .0000000000    -.1523379566
 STOP
 QUADRUPOLES 
C1          -.6039175471   -1.7892421599    -.5951037617     .0000000000 >
     .0000000023     .0000000000
H2          -.2986568747    -.3430418395    -.3041587293     .0000000000 >
     .0000000015     .0000000000
C3          -.5973106034   -1.7892521793    -.6017147413     .0000000000 >
     .0038144369     .0000000000
H4          -.3027832725    -.3430418847    -.3000324049     .0000000000 >
    -.0023823760     .0000000000
C5          -.5973106047   -1.7892521862    -.6017147432     .0000000000 >
    -.0038144368     .0000000000
H6          -.3027832706    -.3430418837    -.3000324040     .0000000000 >
     .0023823759     .0000000000
C7          -.6039175496   -1.7892421635    -.5951037635     .0000000000 >
    -.0000000023     .0000000000
H8          -.2986568720    -.3430418363    -.3041587251     .0000000000 >
    -.0000000015     .0000000000
C9          -.5973106174   -1.7892522189    -.6017147532     .0000000000 >
     .0038144376     .0000000000
H10         -.3027832536    -.3430418689    -.3000323864     .0000000000 >
    -.0023823721     .0000000000
C11         -.5973106162   -1.7892522122    -.6017147514     .0000000000 >
    -.0038144377     .0000000000
H12         -.3027832554    -.3430418699    -.3000323872     .0000000000 >
     .0023823721     .0000000000
BO21        -.6209541495    -.8778736518    -.3287894763     .0000000000 >
     .0000000027     .0000000000
BO31        -.6829125198   -2.0883917571   -1.1640108029     .0000000000 >
    -.4166446939     .0000000000
BO43        -.4018259685    -.8778710193    -.5479123068     .0000000000 >
     .1265098735     .0000000000
BO53       -1.4045399536   -2.0883447306    -.4423637423     .0000000000 >
     .0000000000     .0000000000
BO65        -.4018259678    -.8778710205    -.5479123073     .0000000000 >
    -.1265098734     .0000000000
BO75        -.6829125216   -2.0883917593   -1.1640108042     .0000000000 >
     .4166446938     .0000000000
BO87        -.6209541489    -.8778736504    -.3287894751     .0000000000 >
    -.0000000027     .0000000000
BO97        -.6829125272   -2.0883917807   -1.1640108077     .0000000000 >
    -.4166446954     .0000000000
BO109       -.4018259649    -.8778710195    -.5479123013     .0000000000 >
     .1265098748     .0000000000
BO111       -.6829125255   -2.0883917786   -1.1640108066     .0000000000 >
     .4166446955     .0000000000
BO119      -1.4045399584   -2.0883447252    -.4423637527     .0000000000 >
     .0000000000     .0000000000
BO1211      -.4018259656    -.8778710183    -.5479123009     .0000000000 >
    -.1265098750     .0000000000
 STOP
 OCTUPOLES  
C1           .0000000018     .0000000000    -.0797219422     .0000000000 >
    -.2035420520     .0000000025    -.3077806361     .0000000009 >
     .0000000000     .0000000000
H2           .0000000043     .0000000000    -.4587723864     .0000000000 >
    -.2115949580     .0000000021    -.2443823895     .0000000023 >
     .0000000000     .0000000000
C3          -.1839790533     .0000000000    -.2389496372     .0000000000 >
     .0973219254    -.2665224677    -.1538839563    -.0613268983 >
     .0000000000     .0000000000
H4          -.4354162350     .0000000000    -.2953910306     .0000000000 >
    -.0397927792    -.2116412677    -.1221911536    -.1451388643 >
     .0000000000     .0000000000
C5          -.1839790534     .0000000000     .2389496379     .0000000000 >
    -.0973219254    -.2665224688     .1538839568    -.0613268984 >
     .0000000000     .0000000000
H6          -.4354162313     .0000000000     .2953910298     .0000000000 >
     .0397927791    -.2116412664     .1221911534    -.1451388633 >
     .0000000000     .0000000000
C7           .0000000018     .0000000000     .0797219416     .0000000000 >
     .2035420522     .0000000025     .3077806350     .0000000009 >
     .0000000000     .0000000000
H8           .0000000042     .0000000000     .4587723779     .0000000000 >
     .2115949547     .0000000021     .2443823856     .0000000022 >
     .0000000000     .0000000000
C9           .1839790534     .0000000000     .2389496357     .0000000000 >
    -.0973219272     .2665224649     .1538839616     .0613268985 >
     .0000000000     .0000000000
H10          .4354161985     .0000000000     .2953910006     .0000000000 >
     .0397927723     .2116412518     .1221911427     .1451388508 >
     .0000000000     .0000000000
C11          .1839790533     .0000000000    -.2389496351     .0000000000 >
     .0973219272     .2665224638    -.1538839611     .0613268984 >
     .0000000000     .0000000000
H12          .4354162020     .0000000000    -.2953910013     .0000000000 >
    -.0397927723     .2116412531    -.1221911429     .1451388518 >
     .0000000000     .0000000000
BO21         .0000000077     .0000000000    -.3041854026     .0000000000 >
    -.3388670937     .0000000055    -.4569380452     .0000000028 >
     .0000000000     .0000000000
BO31        -.2141121366     .0000000000    -.6327482381     .0000000000 >
    -.2109125290    -.1784448910    -.3090545402    -.2729712878 >
     .0000000000     .0000000000
BO43        -.4176625167     .0000000000    -.4192459960     .0000000000 >
     .0977176400    -.3957099580    -.2284708909    -.1392228921 >
     .0000000000     .0000000000
BO53        -.8818463419     .0000000000     .0000000006     .0000000000 >
     .0000000000    -.3569767025     .0000000011    -.0923402614 >
     .0000000000     .0000000000
BO65        -.4176625148     .0000000000     .4192459964     .0000000000 >
    -.0977176394    -.3957099570     .2284708914    -.1392228916 >
     .0000000000     .0000000000
BO75        -.2141121371    -.0000000001     .6327482377     .0000000000 >
     .2109125294    -.1784448926     .3090545407    -.2729712877 >
     .0000000000     .0000000000
BO87         .0000000076     .0000000000     .3041854003     .0000000000 >
     .3388670917     .0000000055     .4569380416     .0000000028 >
     .0000000000     .0000000000
BO97         .2141121389     .0000000000     .6327482378     .0000000000 >
     .2109125265     .1784449003     .3090545502     .2729712876 >
     .0000000000     .0000000000
BO109        .4176625035     .0000000000     .4192459778     .0000000000 >
    -.0977176383     .3957099445     .2284708833     .1392228875 >
     .0000000000     .0000000000
BO111        .2141121384     .0000000000    -.6327482383     .0000000000 >